p cnf 36 103
-9 1 0
-9 2 0
-10 1 0
-10 3 0
-11 1 0
-11 4 0
-12 1 0
-12 5 0
-13 1 0
-13 6 0
-14 1 0
-14 7 0
-15 1 0
-15 8 0
-16 2 0
-16 3 0
-17 2 0
-17 4 0
-18 2 0
-18 5 0
-19 2 0
-19 6 0
-20 2 0
-20 7 0
-21 2 0
-21 8 0
-22 3 0
-22 4 0
-23 3 0
-23 5 0
-24 3 0
-24 6 0
-25 3 0
-25 7 0
-26 3 0
-26 8 0
-27 4 0
-27 5 0
-28 4 0
-28 6 0
-29 4 0
-29 7 0
-30 4 0
-30 8 0
-31 5 0
-31 6 0
-32 5 0
-32 7 0
-33 5 0
-33 8 0
-34 6 0
-34 7 0
-35 6 0
-35 8 0
-36 7 0
-36 8 0
-9 -10 0
-9 -12 0
-10 -12 0
-9 -17 0
-9 -19 0
-17 -19 0
-10 -22 0
-10 -25 0
-22 -25 0
-17 -22 0
-17 -30 0
-22 -30 0
-12 -31 0
-12 -32 0
-31 -32 0
-19 -31 0
-19 -35 0
-31 -35 0
-25 -32 0
-25 -36 0
-32 -36 0
-30 -35 0
-30 -36 0
-35 -36 0
-1 9 10 12 0
-2 9 17 19 0
-3 10 22 25 0
-4 17 22 30 0
-5 12 31 32 0
-6 19 31 35 0
-7 25 32 36 0
-8 30 35 36 0
1 2 0
1 3 0
1 5 0
2 4 0
2 6 0
3 4 0
3 7 0
4 8 0
5 6 0
5 7 0
6 8 0
7 8 0
-9 0
-10 0
-12 0
